
Gurobi 8.1.1 (win64, Python) logging started 05/27/20 21:32:49


Gurobi 9.0.3 (win64, gurobi_cl) logging started Wed Sep  9 21:51:16 2020

Using license file c:\gurobi903\gurobi.lic
Set parameter LogFile to value gurobi.log

Gurobi Optimizer version 9.0.3 build v9.0.3rc0 (win64)
Copyright (c) 2020, Gurobi Optimization, LLC

Read MPS format model from file scenario_noFinance.mps
Reading time = 0.00 seconds
self-cash-scenario-mip: 416 rows, 192 columns, 912 nonzeros
Optimize a model with 416 rows, 192 columns and 912 nonzeros
Model fingerprint: 0x3bc60888
Coefficient statistics:
  Matrix range     [1e-02, 2e+02]
  Objective range  [7e-01, 3e+01]
  Bounds range     [0e+00, 0e+00]
  RHS range        [4e+01, 8e+04]
Presolve removed 336 rows and 72 columns
Presolve time: 0.01s
Presolved: 80 rows, 120 columns, 324 nonzeros

Iteration    Objective       Primal Inf.    Dual Inf.      Time
       0    2.4034308e+05   6.948780e+03   0.000000e+00      0s
      72    8.5651297e+04   0.000000e+00   0.000000e+00      0s

Solved in 72 iterations and 0.01 seconds
Optimal objective  8.565129730e+04

Gurobi 9.0.3 (win64, gurobi_cl) logging started Thu Sep 10 10:45:23 2020

Using license file c:\gurobi903\gurobi.lic
Set parameter LogFile to value gurobi.log

Gurobi Optimizer version 9.0.3 build v9.0.3rc0 (win64)
Copyright (c) 2020, Gurobi Optimization, LLC

Read LP format model from file scenario_noFinance.lp
Reading time = 26.20 seconds
: 319488 rows, 147456 columns, 34492416 nonzeros
Optimize a model with 319488 rows, 147456 columns and 34492416 nonzeros
Model fingerprint: 0xe2dcaead
Coefficient statistics:
  Matrix range     [1e-06, 2e+02]
  Objective range  [7e-05, 5e-01]
  Bounds range     [0e+00, 0e+00]
  RHS range        [4e+01, 1e+06]

Concurrent LP optimizer: primal simplex, dual simplex, and barrier
Showing barrier log only...

Presolve removed 104049 rows and 5745 columns (presolve time = 6s) ...
Presolve removed 114231 rows and 15927 columns (presolve time = 14s) ...
Presolve removed 114231 rows and 15927 columns (presolve time = 15s) ...
Presolve removed 114231 rows and 15927 columns (presolve time = 23s) ...
Presolve removed 114231 rows and 15927 columns (presolve time = 30s) ...
Presolve removed 114231 rows and 15927 columns (presolve time = 35s) ...
Presolve removed 114231 rows and 15927 columns (presolve time = 42s) ...
Presolve removed 114231 rows and 15927 columns (presolve time = 45s) ...
Presolve removed 114231 rows and 15927 columns (presolve time = 50s) ...
Presolve removed 114231 rows and 15927 columns (presolve time = 59s) ...
Presolve removed 114231 rows and 15927 columns (presolve time = 65s) ...
Presolve removed 116478 rows and 15927 columns (presolve time = 65s) ...
Presolve removed 116478 rows and 15927 columns
Presolve time: 66.65s
Presolved: 203010 rows, 131529 columns, 34338114 nonzeros

Elapsed ordering time = 5s
Ordering time: 10.94s

Barrier performed 0 iterations in 130.46 seconds
Error termination


Gurobi 9.0.3 (win64, gurobi_cl) logging started Thu Sep 10 10:55:31 2020

Using license file c:\gurobi903\gurobi.lic
Set parameter LogFile to value gurobi.log

Gurobi Optimizer version 9.0.3 build v9.0.3rc0 (win64)
Copyright (c) 2020, Gurobi Optimization, LLC

Read MPS format model from file scenario_noFinance.mps
Reading time = 23.21 seconds
self-cash-scenario-mip: 319488 rows, 147456 columns, 34492416 nonzeros
Optimize a model with 319488 rows, 147456 columns and 34492416 nonzeros
Model fingerprint: 0x30aa4841
Coefficient statistics:
  Matrix range     [1e-06, 2e+02]
  Objective range  [7e-05, 5e-01]
  Bounds range     [0e+00, 0e+00]
  RHS range        [4e+01, 1e+06]

Concurrent LP optimizer: primal simplex, dual simplex, and barrier
Showing barrier log only...

Presolve removed 104448 rows and 6144 columns (presolve time = 5s) ...
Presolve removed 116736 rows and 18432 columns (presolve time = 12s) ...
Presolve removed 116736 rows and 18432 columns (presolve time = 22s) ...
Presolve removed 116736 rows and 18432 columns (presolve time = 29s) ...
Presolve removed 116736 rows and 18432 columns (presolve time = 35s) ...
Presolve removed 116736 rows and 18432 columns (presolve time = 38s) ...
Presolve removed 116736 rows and 18432 columns (presolve time = 41s) ...
Presolve removed 116736 rows and 18432 columns (presolve time = 50s) ...
Presolve removed 116736 rows and 18432 columns (presolve time = 58s) ...
Presolve removed 116736 rows and 18432 columns (presolve time = 64s) ...
Presolve removed 116736 rows and 18432 columns (presolve time = 68s) ...
Presolve removed 124896 rows and 18432 columns
Presolve time: 69.89s
Presolved: 194592 rows, 129024 columns, 34246656 nonzeros

Elapsed ordering time = 5s
Ordering time: 10.99s

Barrier performed 0 iterations in 137.51 seconds
Error termination

